c description: Random 3-CNF over 15 variables and 60 clauses
p cnf 15 60
3 14 -15 0
-3 9 -14 0
-2 -9 -13 0
1 -4 -7 0
-1 -2 -10 0
-7 13 15 0
1 12 15 0
5 -11 12 0
-5 -13 15 0
-2 -6 -15 0
-9 13 15 0
3 11 12 0
2 -5 -6 0
-6 -9 -14 0
1 12 -15 0
6 -11 12 0
-7 -9 -14 0
5 -9 14 0
-3 10 -15 0
5 8 13 0
4 -11 -14 0
2 7 14 0
3 -5 -14 0
2 -13 14 0
3 -5 11 0
10 11 -14 0
2 -3 -12 0
-11 -12 -13 0
9 10 12 0
-2 -8 10 0
-1 5 9 0
-9 11 15 0
-2 7 -14 0
-2 -7 12 0
-5 -12 -14 0
5 -10 11 0
-11 -13 -15 0
1 5 9 0
3 -4 -14 0
1 3 5 0
-12 -14 15 0
-9 -10 13 0
-6 7 -10 0
-6 10 -13 0
7 -12 -14 0
-1 -7 -10 0
8 9 10 0
7 8 10 0
2 -3 -10 0
7 8 9 0
-4 5 15 0
1 -5 -14 0
7 8 14 0
-3 -11 14 0
-4 8 9 0
-1 -8 14 0
1 -7 11 0
-1 -3 -14 0
-4 -6 11 0
7 -9 -10 0